Route #1: 26 16 20 18 35 1 30 
Route #2: 6 17 12 39 10 34 4 
Route #3: 31 28 27 15 7 8 
Route #4: 33 11 42 37 32 21 5 24 19 
Route #5: 22 9 13 14 38 36 2 
Route #6: 41 43 29 40 23 25 3 
cost 1021
execution_time 19.482
